Maximize

x_0 + x_1 + x_2


Subject To

b0: x_0 + x_1 + x_2 >= 10
z0:  - x_1 + 2 x_0  = -1
z1:  - x_2 + x_0 + x_1 = 0
z2: - x_0 + 0 x$_0 + 2 x$_1 + 3 x$_2 = 0
z3: x$_0  + x$_1  + x$_2 = 1
z4: - x_1 + 0 x$_3 + 2 x$_4 + 3 x$_5 = 0
z5: x$_3  + x$_4  + x$_5 = 1
z6: - x_2 + 0 x$_6 + 2 x$_7 + 3 x$_8 = 0
z7: x$_6  + x$_7  + x$_8 = 1


Bounds

x_0 <= 100
x_1 <= 100
x_2 <= 100



Binary

x$_0 x$_1 x$_2 x$_3 x$_4 x$_5 x$_6 x$_7 x$_8


General

 x_0 x_1 x_2



End
